p cnf 100 120
39 54 -76 0
87 -65 -92 0
23 53 -81 0
79 95 27 0
-86 92 -53 0
-93 95 44 0
-83 -50 10 0
-69 -65 61 0
23 67 -37 0
-74 -81 62 0
-25 -42 -5 0
-57 -28 -29 0
-92 94 34 0
-71 -94 84 0
46 -63 -23 0
20 75 -64 0
-100 -9 -97 0
88 -58 86 0
-65 -15 47 0
-25 28 -76 0
-21 -61 74 0
-63 -34 44 0
60 -84 -2 0
93 -43 58 0
-19 -43 -35 0
7 -90 65 0
39 -58 28 0
-52 -25 -78 0
-96 -55 -66 0
45 1 24 0
-37 11 3 0
-44 -50 -29 0
44 -87 -46 0
-18 97 -76 0
68 -93 67 0
-10 -79 6 0
93 -52 -1 0
11 26 76 0
-32 64 70 0
48 26 -57 0
-59 -15 -23 0
25 82 -36 0
-4 -78 -30 0
-95 -10 -1 0
-71 100 -20 0
-7 -43 -35 0
60 -71 -99 0
61 69 -26 0
78 -54 6 0
43 -96 75 0
2 -49 -9 0
-56 30 72 0
31 16 18 0
-21 23 54 0
60 62 -25 0
15 83 100 0
-16 12 45 0
-1 -74 -49 0
-60 -78 41 0
35 8 80 0
-93 90 45 0
-98 -93 -52 0
-4 39 70 0
-25 96 -61 0
13 94 -95 0
-4 22 45 0
87 82 -7 0
-74 41 40 0
-19 -86 44 0
-9 -64 -95 0
-21 -66 -10 0
71 3 62 0
-30 -83 6 0
-19 9 43 0
-85 -15 -30 0
-24 -43 -34 0
94 -25 35 0
-55 -38 -59 0
36 70 -2 0
88 73 -69 0
-71 60 37 0
-67 11 -21 0
44 -52 87 0
71 -69 81 0
-11 -94 9 0
24 15 98 0
-16 14 -17 0
36 -34 13 0
99 21 81 0
86 -6 -83 0
-94 92 -20 0
89 -72 -48 0
10 6 33 0
45 -53 -32 0
29 -67 8 0
15 42 -75 0
12 -97 8 0
90 79 26 0
85 14 48 0
23 32 13 0
x 1 2 -3 4 -6 -11 12 -13 16 17 18 19 22 -23 25 26 27 -29 30 -33 34 35 -37 -39 -45 46 -47 -49 50 -51 -52 54 55 -56 60 61 62 -64 -66 69 71 -73 81 82 87 88 89 91 92 -93 96 0
x 5 8 -9 -11 17 -18 -19 -20 -21 23 -24 -25 26 29 -32 -34 -36 38 -42 43 -44 45 -46 48 50 -51 52 55 56 57 58 63 -65 66 -69 -70 -72 -77 -78 79 81 82 84 85 87 88 -91 92 95 -96 97 0
x -1 4 -6 -12 14 -17 -18 20 -23 24 -26 27 -30 -33 -38 39 41 -42 -45 48 49 50 51 -52 -55 -56 -57 58 -61 62 -64 65 66 67 69 -71 76 -78 79 -80 82 -85 -87 -88 -91 92 93 -94 95 97 99 0
x 1 2 -6 -7 -8 15 -18 -19 -20 21 -23 28 -29 -31 -32 -33 34 -36 -37 -38 -39 -40 42 -46 49 50 51 -56 -57 -58 62 -63 -65 66 67 -69 -70 73 76 -77 78 81 -82 83 -85 86 87 -89 -90 93 0
x -1 -2 -4 -5 -7 9 -12 15 16 17 20 23 -33 -38 -39 -42 44 45 47 49 -51 52 55 -57 -58 -60 62 -64 -65 -66 68 -71 -72 74 -75 76 78 -80 82 84 -85 86 87 -92 95 -99 0
x -1 2 -3 4 6 -7 -8 -9 -11 15 -16 -19 -20 24 26 -27 28 32 39 -41 -42 -43 -44 45 46 -49 50 52 -54 -55 57 62 66 -68 70 71 -74 75 77 -78 81 -82 -86 -88 -91 92 94 96 -97 -99 100 0
x -2 3 -4 -8 9 11 13 14 -15 16 -18 -19 20 -21 -25 -27 29 31 32 34 35 -38 39 -42 -47 48 51 52 -54 -55 56 58 -61 62 63 64 65 -66 -67 69 70 -71 -72 -74 80 -82 87 89 -91 92 95 -97 99 0
x -1 2 4 5 -8 9 -10 -13 15 -17 18 -19 21 -23 -24 -25 -26 27 -28 29 30 34 -35 -37 39 -40 -42 -45 -46 -49 -50 51 -56 -57 59 60 61 63 64 66 -67 -69 72 -73 -78 81 82 -83 -84 -87 -88 92 -97 98 -99 0
x 4 -5 6 -7 10 -12 13 -15 17 -18 -19 20 22 23 24 27 28 -29 -31 32 -34 -36 -37 38 -39 -40 45 -46 47 49 -51 -52 -57 60 -62 -63 64 -65 -67 68 69 -70 -73 -74 76 -77 81 84 90 91 -93 -94 -96 98 -99 0
x -1 2 -4 5 9 10 11 -13 -15 16 -17 22 -25 -26 27 -28 29 31 35 39 -40 -41 -42 43 48 -49 -51 -52 -53 55 56 57 58 59 63 67 -68 69 -70 73 74 77 78 80 -81 84 85 87 -88 -90 91 -92 93 -94 95 -96 98 100 0
x -2 5 6 -9 -11 -13 14 18 19 22 -23 25 -26 27 -30 -32 -34 -36 37 -39 -41 42 -47 49 -52 -54 -56 -57 59 63 -64 66 -67 -71 75 76 77 -78 79 80 81 -82 -84 86 87 92 -93 94 95 97 99 100 0
x -2 3 4 6 -8 14 -15 19 20 25 -28 29 -30 37 38 42 -44 -45 46 -47 -49 50 -52 64 65 66 -68 -69 70 -71 -73 -76 -80 -83 84 -85 -87 -92 93 -94 95 96 -98 0
x 1 2 3 -5 -8 11 13 15 16 -17 19 20 24 -25 -26 27 28 29 30 33 34 -35 36 -40 -44 46 47 51 -52 -53 54 -55 -56 59 -65 -66 -67 68 -70 74 -75 -76 79 81 82 -84 -87 90 92 -94 97 -98 99 -100 0
x -2 3 -4 6 7 10 -11 -12 13 14 -15 16 -18 -19 23 -24 -25 27 29 31 -32 35 37 -38 40 41 42 44 -47 -48 49 50 -53 -54 -57 59 60 -63 -64 65 71 -72 -73 74 75 80 82 84 85 86 88 -90 93 96 97 99 100 0
x 1 2 -3 5 -7 -9 10 -11 -12 -13 14 15 -16 17 -18 20 23 -24 25 -30 31 -34 -35 36 40 44 -46 48 -49 51 -53 54 55 -57 59 61 -63 64 -69 72 75 77 79 82 85 86 -87 88 89 -90 96 0
x -3 -4 5 -6 7 9 -14 -16 17 -18 -20 -22 23 25 -27 -29 30 -31 32 -34 -35 36 38 -40 42 -44 45 46 -50 51 52 -54 -55 -56 57 59 -60 -61 -62 -63 64 -69 72 76 -77 -79 -82 83 -84 -85 86 89 -90 -95 97 99 -100 0
x 3 9 -10 -14 15 -16 -17 18 19 -23 25 29 -32 -33 34 36 39 -42 -44 45 47 -48 -49 -50 -52 -53 56 -58 -62 -68 -70 72 -76 -77 -79 -80 81 -82 84 85 -86 -88 89 -92 93 94 -95 -97 -98 -99 100 0
x 1 3 -4 6 -12 13 -16 -17 19 21 23 -24 30 31 32 33 34 -36 37 -38 -39 40 43 -44 45 47 -50 -53 -55 -59 -61 62 63 64 67 68 69 70 72 78 79 -83 -84 85 89 90 92 -95 96 -97 -99 0
x -1 -3 4 5 7 9 11 -12 -15 17 -19 -20 22 -23 -24 -26 -27 -30 31 32 -34 -36 37 38 39 41 -44 -45 -47 -49 50 51 54 -57 -61 -65 66 -68 71 -72 -74 -76 -78 80 -81 -82 -83 84 86 89 -90 92 -94 98 99 100 0
x -4 -5 -8 9 -11 -13 14 16 17 -18 -19 20 -21 22 -23 -25 -26 -28 29 -30 -34 35 -36 -39 41 44 45 46 -49 -50 55 -58 59 -60 61 62 64 -65 66 -69 72 73 -76 81 82 -83 -84 -85 86 -87 -88 -89 90 92 -93 -95 -96 98 -100 0
